p cnf 109 363
-1 -2 -3 0
1 2 -3 0
-1 2 3 0
1 -2 3 0
-2 4 -5 0
2 -4 -5 0
-2 -4 5 0
2 4 5 0
-6 3 0
-6 -5 0
-3 5 6 0
6 7 0
-6 7 0
10 8 0
10 -9 0
-8 9 -10 0
-13 -12 0
-13 -6 0
12 6 13 0
14 11 0
14 8 0
-11 -8 -14 0
-15 13 0
-15 -14 0
-13 14 15 0
-4 9 -16 0
4 -9 -16 0
-4 -9 16 0
4 9 16 0
-15 -16 -17 0
15 16 -17 0
-15 16 17 0
15 -16 17 0
-18 -11 0
-18 -17 0
11 17 18 0
-19 10 0
-19 -18 0
-10 18 19 0
19 5 -20 0
-19 -5 -20 0
19 -5 20 0
-19 5 20 0
-21 7 0
-21 -20 0
-7 20 21 0
-23 -22 0
-23 4 0
22 -4 23 0
25 2 0
25 -16 0
-2 16 -25 0
-26 25 0
-26 3 0
-25 -3 26 0
27 -24 0
27 26 0
24 -26 -27 0
23 27 -28 0
-23 -27 -28 0
23 -27 28 0
-23 27 28 0
29 -28 0
29 -1 0
28 1 -29 0
3 29 -30 0
-3 -29 -30 0
3 -29 30 0
-3 29 30 0
21 30 -31 0
-21 -30 -31 0
21 -30 31 0
-21 30 31 0
33 32 0
33 -22 0
-32 22 -33 0
-34 22 0
-34 33 0
-22 -33 34 0
33 -6 -35 0
-33 6 -35 0
33 6 35 0
-33 -6 35 0
34 35 -36 0
-34 -35 -36 0
34 -35 36 0
-34 35 36 0
-38 -36 0
-38 37 0
36 -37 38 0
-39 -28 0
-39 -38 0
28 38 39 0
40 -22 0
40 1 0
22 -1 -40 0
-4 -40 -41 0
4 40 -41 0
-4 40 41 0
4 -40 41 0
-43 -42 0
-43 -10 0
42 10 43 0
-41 -43 -44 0
41 43 -44 0
-41 43 44 0
41 -43 44 0
-45 44 0
-45 1 0
-44 -1 45 0
-39 -45 -46 0
39 45 -46 0
-39 45 46 0
39 -45 46 0
31 -46 -47 0
-31 46 -47 0
31 46 47 0
-31 -46 47 0
-48 -29 0
-48 -25 0
29 25 48 0
-49 9 0
-49 12 0
-9 -12 49 0
-50 -2 0
-50 -22 0
2 22 50 0
51 -28 0
51 -36 0
28 36 -51 0
-52 27 0
-52 51 0
-27 -51 52 0
-50 -52 -53 0
50 52 -53 0
-50 52 53 0
50 -52 53 0
54 -53 0
54 18 0
53 -18 -54 0
55 -5 0
55 -26 0
5 26 -55 0
57 55 0
57 -56 0
-55 56 -57 0
-58 -57 0
-58 -52 0
57 52 58 0
59 22 0
59 58 0
-22 -58 -59 0
60 54 0
60 -59 0
-54 59 -60 0
-49 60 -61 0
49 -60 -61 0
-49 -60 61 0
49 60 61 0
63 -4 0
63 62 0
4 -62 -63 0
9 22 -64 0
-9 -22 -64 0
9 -22 64 0
-9 22 64 0
65 63 0
65 -64 0
-63 64 -65 0
-66 -61 0
-66 -65 0
61 65 66 0
-48 -66 -67 0
48 66 -67 0
-48 66 67 0
48 -66 67 0
47 67 -68 0
-47 -67 -68 0
47 -67 68 0
-47 67 68 0
69 -56 0
69 13 0
56 -13 -69 0
-70 -1 0
-70 23 0
1 -23 70 0
-24 70 -71 0
24 -70 -71 0
-24 -70 71 0
24 70 71 0
-72 71 0
-72 52 0
-71 -52 72 0
72 73 -74 0
-72 -73 -74 0
72 -73 74 0
-72 73 74 0
-75 69 0
-75 74 0
-69 -74 75 0
76 -18 0
76 -40 0
18 40 -76 0
-77 34 0
-77 -2 0
-34 2 77 0
28 11 -78 0
-28 -11 -78 0
28 -11 78 0
-28 11 78 0
77 78 -79 0
-77 -78 -79 0
77 -78 79 0
-77 78 79 0
-80 -76 0
-80 79 0
76 -79 80 0
8 -57 -81 0
-8 57 -81 0
8 57 81 0
-8 -57 81 0
-56 -42 -82 0
56 42 -82 0
-56 42 82 0
56 -42 82 0
83 -81 0
83 82 0
81 -82 -83 0
33 -5 -84 0
-33 5 -84 0
33 5 84 0
-33 -5 84 0
-85 83 0
-85 84 0
-83 -84 85 0
-86 80 0
-86 85 0
-80 -85 86 0
87 -22 0
87 41 0
22 -41 -87 0
-87 10 -88 0
87 -10 -88 0
-87 -10 88 0
87 10 88 0
89 88 0
89 -36 0
-88 36 -89 0
-8 -90 -91 0
8 90 -91 0
-8 90 91 0
8 -90 91 0
92 89 0
92 91 0
-89 -91 -92 0
93 -34 0
93 42 0
34 -42 -93 0
-94 -29 0
-94 -93 0
29 93 94 0
-87 64 -95 0
87 -64 -95 0
-87 -64 95 0
87 64 95 0
94 -95 -96 0
-94 95 -96 0
94 95 96 0
-94 -95 96 0
-33 -56 -97 0
33 56 -97 0
-33 56 97 0
33 -56 97 0
98 -97 0
98 4 0
97 -4 -98 0
99 96 0
99 98 0
-96 -98 -99 0
100 92 0
100 99 0
-92 -99 -100 0
101 86 0
101 100 0
-86 -100 -101 0
-75 101 -102 0
75 -101 -102 0
-75 -101 102 0
75 101 102 0
-103 40 0
-103 25 0
-40 -25 103 0
34 -50 -104 0
-34 50 -104 0
34 50 104 0
-34 -50 104 0
-105 103 0
-105 104 0
-103 -104 105 0
-102 105 -106 0
102 -105 -106 0
-102 -105 106 0
102 105 106 0
12 26 -107 0
-12 -26 -107 0
12 -26 107 0
-12 26 107 0
-106 107 -108 0
106 -107 -108 0
-106 -107 108 0
106 107 108 0
68 108 -109 0
-68 -108 -109 0
68 -108 109 0
-68 108 109 0
-40 22 -31 51 -70 -99 0
-58 -95 14 70 0
-4 58 13 35 -1 0
24 88 102 -97 0
31 16 0
75 51 -96 0
65 5 38 37 -39 0
25 -50 0
20 -97 -95 56 -55 83 0
13 91 -87 0
-91 71 -100 -26 97 0
-107 -29 0
-57 29 -71 0
99 -78 7 0
-45 97 -2 -67 0
-67 4 68 21 -65 -31 0
-60 30 89 0
-60 -76 3 -24 -90 108 0
-76 70 0
12 -14 0
1 -99 -31 -48 -69 21 0
63 3 66 104 0
-34 -68 -31 -3 101 -70 0
-109 11 17 61 -23 0
-37 30 -101 0
-73 33 -51 0
-13 90 2 -53 0
94 52 46 -5 0
47 8 -10 0
53 10 97 80 3 0
34 -16 0
55 -43 0
65 28 -27 -96 -74 -53 0
-54 17 0
-43 -39 84 -101 0
61 -93 -87 -100 41 0
100 -88 92 2 -48 0
-77 47 84 39 0
-64 43 0
-47 -27 -76 -75 -50 63 0
21 12 55 85 0
-1 -38 -33 0
47 33 101 0
-14 -25 -31 0
10 -9 0
-1 26 0
-105 -80 33 24 63 0
109 0
